-99 000 000 000 000 000 000 000 -99 -99 -99 -99 000 000 000 000 -99 -99 000 000 000 000 -99 -99 000 000 -99 -99 -99 005 001
000 000 000 000 000 000 000 000 -99 -99 -99 -99 -99 000 000 000 -99 -99 -99 000 000 000 000 -99 000 000 -99 -99 -99 005 002
-99 000 000 000 000 000 000 000 000 000 -99 -99 -99 -99 000 000 -99 -99 -99 -99 000 000 000 -99 000 000 000 000 -99 -99 001
-99 000 000 000 000 000 000 000 000 000 -99 -99 -99 -99 -99 000 000 -99 -99 -99 000 000 000 000 000 000 000 000 -99 -99 000
000 -99 000 000 000 000 000 000 000 000 -99 -99 000 -99 -99 000 -99 -99 -99 -99 000 000 000 000 000 000 -99 -99 -99 -99 000
000 000 000 000 000 -99 000 000 000 000 000 000 000 -99 000 000 -99 000 -99 -99 000 000 000 000 000 000 -99 -99 -99 -99 -99
000 000 000 000 000 -99 -99 000 000 000 000 000 000 000 000 000 000 000 -99 -99 000 000 000 000 000 000 -99 -99 -99 -99 -99
000 000 000 000 000 -99 -99 -99 -99 000 000 -99 -99 -99 -99 000 000 000 -99 -99 000 000 000 000 000 000 -99 -99 -99 000 -99
000 000 000 000 000 -99 -99 -99 -99 000 000 000 -99 -99 -99 -99 000 000 000 -99 000 -99 000 000 000 -99 -99 -99 -99 000 000
000 000 000 000 000 000 -99 000 000 000 000 000 -99 -99 -99 000 000 000 000 000 000 000 -99 -99 000 000 -99 -99 000 000 000
000 000 000 000 000 -99 000 000 000 000 000 000 000 -99 000 000 000 000 000 000 000 000 -99 -99 000 000 -99 -99 000 000 000
000 000 000 000 000 -99 000 000 000 000 000 000 -99 -99 000 000 000 -99 000 000 -99 -99 -99 000 000 -99 -99 -99 000 000 000
000 000 000 000 000 000 000 000 000 000 000 000 -99 -99 -99 000 000 000 000 000 -99 -99 -99 000 000 000 000 000 000 000 000
000 000 000 000 000 000 000 000 000 -99 000 000 -99 -99 -99 000 000 000 000 000 -99 000 000 000 000 000 000 000 -99 000 -99
000 000 000 000 000 000 000 000 000 -99 -99 -99 -99 000 -99 000 000 000 000 000 -99 000 000 000 -99 000 000 000 000 -99 -99
000 -99 000 000 000 000 000 000 000 -99 -99 -99 000 000 000 000 000 000 000 -99 -99 000 -99 -99 000 000 000 000 000 -99 -99
000 -99 -99 000 -99 -99 000 000 000 -99 -99 -99 000 000 000 000 000 000 000 -99 -99 -99 000 -99 -99 000 000 000 000 000 -99
000 000 000 -99 -99 -99 000 000 000 000 -99 -99 -99 000 000 000 000 000 000 -99 -99 000 000 -99 -99 -99 -99 -99 -99 000 -99
000 000 000 000 -99 -99 -99 000 000 -99 -99 -99 -99 -99 000 000 000 000 000 -99 000 000 -99 -99 -99 000 000 -99 -99 -99 -99
000 000 000 000 -99 000 -99 -99 -99 -99 -99 -99 -99 -99 000 -99 000 000 000 000 000 000 000 -99 -99 -99 -99 -99 -99 -99 -99
000 000 000 000 000 000 -99 -99 000 000 000 -99 -99 -99 -99 -99 000 000 000 000 000 000 000 -99 -99 -99 -99 -99 -99 -99 -99
000 000 000 000 000 000 -99 000 000 000 000 -99 -99 000 000 000 000 000 000 000 000 000 000 -99 -99 -99 -99 -99 -99 -99 -99
000 000 000 000 000 000 -99 000 000 000 000 -99 000 000 000 000 000 000 000 000 000 000 000 -99 -99 -99 -99 -99 -99 -99 -99
000 000 000 000 000 -99 -99 000 000 -99 -99 -99 000 000 000 000 000 000 000 000 000 000 000 -99 -99 -99 -99 -99 -99 -99 -99
000 000 000 000 000 000 -99 000 000 -99 -99 -99 000 000 000 000 000 000 000 000 000 000 000 -99 -99 -99 -99 -99 -99 -99 -99
000 000 000 000 000 000 000 000 000 000 -99 -99 000 000 000 000 000 000 000 000 000 000 -99 -99 -99 -99 -99 -99 -99 -99 -99
000 000 000 000 000 000 000 000 000 000 000 -99 -99 000 000 000 000 000 000 000 000 000 000 -99 -99 -99 -99 -99 -99 -99 -99
000 000 000 000 000 000 000 000 000 000 -99 -99 -99 000 000 000 000 000 000 000 000 000 000 -99 -99 -99 -99 -99 -99 -99 000
000 000 000 000 000 000 000 000 000 000 -99 -99 -99 000 000 000 000 000 000 000 000 000 -99 -99 -99 -99 -99 -99 -99 -99 000
000 000 000 000 000 000 000 000 000 000 000 -99 -99 000 000 000 000 000 000 000 000 000 -99 000 000 -99 -99 -99 -99 -99 000
000 000 000 000 000 000 000 000 000 000 000 -99 -99 000 000 000 000 000 000 000 -99 000 -99 000 000 -99 -99 -99 -99 -99 000
000 000 000 000 000 000 000 000 000 000 000 -99 -99 000 000 000 000 000 000 000 -99 -99 -99 000 000 -99 -99 -99 -99 -99 000
000 000 000 000 000 000 000 000 000 -99 -99 -99 -99 -99 000 000 000 000 000 -99 -99 -99 -99 000 000 -99 -99 -99 -99 -99 000
000 000 000 000 000 000 000 000 000 000 -99 -99 -99 000 000 000 000 000 -99 000 -99 000 000 000 000 000 -99 -99 000 -99 000
000 000 000 000 000 000 000 000 000 000 -99 -99 000 000 000 -99 -99 -99 -99 000 000 -99 000 000 000 000 000 000 000 -99 000
000 000 000 000 000 000 000 000 000 000 000 000 000 000 000 000 -99 -99 000 000 000 000 000 000 000 000 000 000 000 -99 000
000 000 000 000 000 -99 -99 000 000 000 000 -99 000 000 000 000 000 -99 -99 000 000 000 000 000 000 000 000 000 000 -99 000
000 -99 000 000 000 000 -99 000 000 000 -99 000 000 000 000 000 000 -99 -99 000 000 000 000 000 000 000 000 000 000 000 -99
000 -99 -99 000 000 000 -99 -99 -99 000 -99 000 000 000 000 000 000 000 000 000 000 000 -99 -99 000 000 000 000 000 000 000
-99 -99 000 000 000 -99 -99 -99 -99 -99 -99 -99 000 000 000 000 000 000 000 000 000 -99 000 000 000 000 -99 -99 000 000 000
-99 000 000 000 000 -99 000 -99 -99 -99 -99 000 000 000 000 000 000 000 000 000 -99 -99 -99 -99 000 000 -99 -99 -99 000 000
000 000 -99 -99 -99 -99 -99 -99 -99 000 000 000 000 000 000 000 -99 000 000 000 -99 -99 -99 -99 000 -99 -99 000 000 000 000
-99 -99 -99 -99 -99 -99 -99 000 -99 000 000 000 000 000 -99 000 000 000 000 000 000 -99 -99 000 000 000 -99 000 000 -99 000
-99 -99 -99 -99 -99 -99 000 000 -99 000 000 000 000 000 000 000 -99 000 000 000 000 -99 000 000 000 000 -99 000 000 -99 -99
000 000 -99 -99 -99 -99 -99 -99 -99 000 000 000 000 000 000 000 000 000 000 000 000 -99 000 000 000 -99 000 000 000 -99 -99
000 -99 -99 -99 -99 -99 -99 -99 -99 000 000 000 000 000 000 -99 000 000 -99 000 000 000 000 000 000 000 000 000 -99 -99 -99
000 -99 -99 -99 -99 -99 -99 -99 -99 000 -99 000 000 000 000 -99 -99 -99 -99 000 000 000 000 000 000 000 000 -99 -99 -99 -99
-99 -99 -99 -99 -99 -99 -99 -99 -99 000 -99 -99 000 000 000 -99 -99 -99 -99 000 000 000 000 000 000 000 -99 -99 000 -99 -99
-99 -99 -99 -99 -99 -99 -99 -99 -99 -99 -99 -99 000 000 -99 -99 -99 000 000 000 000 000 000 000 000 002 001 000 000 -99 -99
-99 -99 -99 -99 -99 -99 -99 -99 -99 -99 -99 -99 -99 000 -99 -99 000 000 000 000 000 000 000 000 000 001 000 000 000 -99 -99
-99 -99 -99 -99 -99 -99 -99 -99 -99 -99 -99 -99 000 000 000 000 000 000 000 000 000 000 -99 000 000 001 000 000 000 -99 -99
-99 -99 -99 -99 -99 -99 -99 -99 -99 -99 -99 -99 000 000 -99 000 000 000 000 000 000 -99 -99 -99 000 000 000 000 -99 -99 -99
-99 -99 -99 -99 -99 -99 -99 -99 -99 -99 -99 -99 -99 -99 000 000 000 000 000 000 000 000 -99 -99 000 000 000 000 -99 -99 -99
-99 -99 -99 -99 -99 -99 -99 -99 -99 -99 -99 -99 -99 -99 -99 -99 000 000 000 000 001 000 -99 000 -99 -99 000 -99 -99 000 001
-99 -99 -99 -99 -99 -99 -99 -99 -99 -99 -99 -99 -99 -99 -99 -99 -99 000 -99 000 001 000 -99 -99 -99 -99 -99 -99 001 000 001
